Cu1 In1 Te2                             
    1.000000000000000     
     6.2918135101946584    0.0000000000000000    0.0000000000000000
     0.0000000000000000    6.2918135101946584    0.0000000000000000
     0.0000000000000000    0.0000000000000000   12.6255680696882226
   Cu   In   Te
     4     4     8
Direct
  0.0000000000000000  0.0000000000000000  0.0000000000000000
  0.5000000000000000  0.0000000000000000  0.7500000000000000
  0.5000000000000000  0.5000000000000000  0.5000000000000000
  0.0000000000000000  0.5000000000000000  0.2500000000000000
  0.0000000000000000  0.0000000000000000  0.5000000000000000
  0.5000000000000000  0.0000000000000000  0.2500000000000000
  0.5000000000000000  0.5000000000000000  0.0000000000000000
  0.0000000000000000  0.5000000000000000  0.7500000000000000
  0.2149707909861078  0.2500000000000000  0.1250000000000000
  0.7850291790138826  0.7500000000000000  0.1250000000000000
  0.2500000000000000  0.7850291790138826  0.8750000000000000
  0.7500000000000000  0.2149707909861078  0.8750000000000000
  0.2850292090138922  0.2500000000000000  0.6250000000000000
  0.7149708209861174  0.7500000000000000  0.6250000000000000
  0.7500000000000000  0.2850292090138922  0.3750000000000000
  0.2500000000000000  0.7149708209861174  0.3750000000000000
 
  0.00000000E+00  0.00000000E+00  0.00000000E+00
  0.00000000E+00  0.00000000E+00  0.00000000E+00
  0.00000000E+00  0.00000000E+00  0.00000000E+00
  0.00000000E+00  0.00000000E+00  0.00000000E+00
  0.00000000E+00  0.00000000E+00  0.00000000E+00
  0.00000000E+00  0.00000000E+00  0.00000000E+00
  0.00000000E+00  0.00000000E+00  0.00000000E+00
  0.00000000E+00  0.00000000E+00  0.00000000E+00
  0.00000000E+00  0.00000000E+00  0.00000000E+00
  0.00000000E+00  0.00000000E+00  0.00000000E+00
  0.00000000E+00  0.00000000E+00  0.00000000E+00
  0.00000000E+00  0.00000000E+00  0.00000000E+00
  0.00000000E+00  0.00000000E+00  0.00000000E+00
  0.00000000E+00  0.00000000E+00  0.00000000E+00
  0.00000000E+00  0.00000000E+00  0.00000000E+00
  0.00000000E+00  0.00000000E+00  0.00000000E+00
