Fe1 Nb1 Sb1                             
   1.00000000000000     
     0.0000000000000000    2.9564876372507398    2.9564876372507398
     2.9564876372507398   -0.0000000000000000    2.9564876372507398
     2.9564876372507398    2.9564876372507398    0.0000000000000000
   Fe   Nb   Sb
     1     1     1
Direct
  0.7500000000000000  0.7500000000000000  0.7500000000000000
 -0.0000000000000000 -0.0000000000000000 -0.0000000000000000
  0.5000000000000000  0.5000000000000000  0.5000000000000000
 
  0.00000000E+00  0.00000000E+00  0.00000000E+00
  0.00000000E+00  0.00000000E+00  0.00000000E+00
  0.00000000E+00  0.00000000E+00  0.00000000E+00
